46
75
60	9
59	8
58	12
57	7
56	14
55	16
54	11
53	17
52	10
51	10
50	10
49	6
48	15
47	14
46	8
45	10
44	6
43	12
42	10
41	15
40	13
39	12
38	14
37	16
36	12
35	20
34	14
33	6
32	11
31	9
30	7
29	11
28	8
27	9
26	9
25	11
24	15
23	12
22	4
21	8
20	7
19	5
18	16
17	8
16	13
15	10
